Route #1: 33 35 43 7 51 29
Route #2: 47 44 10 27 8 5 37
Route #3: 6 1 18 30 20 42
Route #4: 2 48 38 9 16 34 32 19 15 49 17
Route #5: 46 13 26 22 50 12 23
Route #6: 4 45 14 39 21 11 28 24 31 3 40
Route #7: 36 25 41
Cost 752